# Objective value = 1.7713184666068009e+03
f_0 0
f_1 0
f_2 0
f_3 0
f_4 0
f_5 0
f_6 0
f_7 0
f_8 0
f_9 0
f_10 0
f_11 0
f_12 0
f_13 0
f_14 0
f_15 0
f_16 0
f_17 0
f_18 0
f_19 0
f_20 0
f_21 0
f_22 0
f_23 0
f_24 0
f_25 0
f_26 0
f_27 0
f_28 0
f_29 0
f_30 0
f_31 0
f_32 0
f_33 0
f_34 0
f_35 0
f_36 0
f_37 0
f_38 0
f_39 0
f_40 0
f_41 0
f_42 0
f_43 0
f_44 0
f_45 0
f_46 0
f_47 0
f_48 0
f_49 0
f_50 0
f_51 0
f_52 0
f_53 0
f_54 0
f_55 0
f_56 0
f_57 0
f_58 0
f_59 0
f_60 0
f_61 0
f_62 0
f_63 0
f_64 0
f_65 0
f_66 0
f_67 0
f_68 0
f_69 0
f_70 0
f_71 0
f_72 0
f_73 0
f_74 0
f_75 0
f_76 0
f_77 0
f_78 0
f_79 0
f_80 0
f_81 0
f_82 0
f_83 0
f_84 0
f_85 0
f_86 0
f_87 0
f_88 0
f_89 0
f_90 0
f_91 0
f_92 0
f_93 0
f_94 0
f_95 0
f_96 0
f_97 0
f_98 0
f_99 0
f_100 0
f_101 0
f_102 0
f_103 0
f_104 0
f_105 0
f_106 0
f_107 0
f_108 0
f_109 0
f_110 0
f_111 0
f_112 0
f_113 0
f_114 0
f_115 0
f_116 0
f_117 0
f_118 0
f_119 0
f_120 0
f_121 0
f_122 0
f_123 0
f_124 0
f_125 0
f_126 0
f_127 0
f_128 0
f_129 0
f_130 0
f_131 0
f_132 0
f_133 0
f_134 0
f_135 0
f_136 0
f_137 0
f_138 0
f_139 0
f_140 0
f_141 0
f_142 0
f_143 0
f_144 0
f_145 0
f_146 0
f_147 0
f_148 0
f_149 0
f_150 0
f_151 0
f_152 0
f_153 0
f_154 0
f_155 0
f_156 0
f_157 0
f_158 0
f_159 0
f_160 0
f_161 0
f_162 0
f_163 0
f_164 0
f_165 0
f_166 0
f_167 0
f_168 0
f_169 0
f_170 0
f_171 0
f_172 0
f_173 0
f_174 0
f_175 0
f_176 0
f_177 0
f_178 0
f_179 0
f_180 0
f_181 0
f_182 0
f_183 0
f_184 2.1469262439933817e-01
f_185 0
f_186 0
f_187 0
f_188 0
f_189 0
f_190 0
f_191 0
f_192 0
f_193 0
f_194 0
f_195 0
f_196 0
f_197 0
f_198 0
f_199 0
f_200 4.5729731332836490e-02
f_201 4.2741421573100583e-02
f_202 0
f_203 0
f_204 0
f_205 0
f_206 0
f_207 0
f_208 0
f_209 0
f_210 0
f_211 0
f_212 0
f_213 0
f_214 0
f_215 0
f_216 0
f_217 0
f_218 0
f_219 1.1547258824958551e-02
f_220 3.2226138884630030e-02
f_221 0
f_222 0
f_223 0
f_224 0
f_225 0
f_226 0
f_227 0
f_228 3.0486927330837014e-03
f_229 0
f_230 0
f_231 0
f_232 0
f_233 0
f_234 0
f_235 0
f_236 0
f_237 0
f_238 0
f_239 0
f_240 0
f_241 0
f_242 0
f_243 0
f_244 0
f_245 0
f_246 6.7158612624577008e-02
f_247 0
f_248 0
f_249 0
f_250 4.5280749857182848e-03
f_251 0
f_252 0
f_253 0
f_254 0
f_255 0
f_256 0
f_257 0
f_258 0
f_259 0
f_260 0
f_261 0
f_262 0
f_263 0
f_264 0
f_265 0
f_266 2.0980186106517779e-02
f_267 8.4299700954900084e-03
f_268 0
f_269 0
f_270 0
f_271 0
f_272 0
f_273 0
f_274 6.3369819874484049e-02
f_275 1.3391543880101270e-01
f_276 0
f_277 0
f_278 0
f_279 0
f_280 0
f_281 1.5560276999079112e-01
f_282 0
f_283 0
f_284 2.8433275290560694e-02
f_285 0
f_286 0
f_287 0
f_288 7.6798377028253206e-04
f_289 5.4710603066034980e-02
f_290 0
f_291 0
f_292 0
f_293 0
f_294 0
f_295 0
f_296 6.0488865805189951e-01
f_297 0
f_298 0
f_299 0
f_300 0
f_301 0
f_302 0
f_303 0
f_304 0
f_305 0
f_306 0
f_307 0
f_308 0
f_309 0
f_310 0
f_311 0
f_312 0
f_313 0
f_314 0
f_315 0
f_316 1.3910582672510960e-01
f_317 0
f_318 0
f_319 0
f_320 0
f_321 0
f_322 0
f_323 7.6004216059666030e-01
f_324 0
f_325 0
f_326 0
f_327 0
f_328 2.8070830610740405e-01
f_329 0
f_330 0
f_331 1.3014918686538368e-02
f_332 0
f_333 1.0251568674389257e-01
f_334 0
f_335 0
f_336 0
f_337 0
f_338 0
f_339 0
f_340 0
f_341 0
f_342 4.1379969383057746e-01
f_343 0
f_344 0
f_345 4.6334918155832718e-02
f_346 0
f_347 2.4919059776106456e-01
f_348 2.4181836568158707e-01
f_349 2.4424857711972385e-02
f_350 0
f_351 0
f_352 0
f_353 0
f_354 4.6623173953166952e-03
f_355 1.8301334473836262e-01
f_356 0
f_357 0
f_358 0
f_359 0
f_360 0
f_361 3.4975855498308855e-01
f_362 6.1904430145701843e-02
f_363 0
f_364 5.7244245236465076e-02
f_365 0
f_366 0
f_367 0
f_368 4.5995627284690827e-01
f_369 0
f_370 1.9521793270192621e-02
f_371 1.7438953995886981e-02
f_372 0
f_373 0
f_374 0
f_375 0
f_376 0
f_377 0
f_378 0
f_379 0
f_380 0
f_381 0
f_382 0
f_383 0
f_384 0
f_385 0
f_386 3.2774072990920777e-02
f_387 4.6345081819937717e-01
f_388 3.2972149793486166e-01
f_389 0
f_390 0
f_391 0
f_392 0
f_393 0
f_394 0
f_395 3.9998495862040052e-03
f_396 0
f_397 7.0827434433945319e-03
f_398 0
f_399 0
f_400 0
f_401 0
f_402 0
f_403 0
f_404 0
f_405 0
f_406 0
f_407 0
f_408 1.0855977198321810e-02
f_409 1.6083487906542182e-02
f_410 0
f_411 0
f_412 0
f_413 0
f_414 0
f_415 0
f_416 1.7890669858732472e-02
f_417 0
f_418 0
f_419 0
f_420 0
f_421 3.3414826544429146e-03
f_422 0
f_423 0
f_424 0
f_425 2.7647169958565121e-01
f_426 4.9958554182080284e-02
f_427 0
f_428 5.6001451162543925e-01
f_429 0
f_430 8.9448735977235988e-02
f_431 0
f_432 0
f_433 0
f_434 0
f_435 2.3394962234755845e-02
f_436 0
f_437 0
f_438 0
f_439 0
f_440 0
f_441 1.4958413642682428e-01
f_442 0
f_443 0
f_444 0
f_445 0
f_446 0
f_447 0
f_448 0
f_449 4.2519565111505198e-01
f_450 0
f_451 0
f_452 0
f_453 0
f_454 2.5629343303320939e-01
f_455 0
f_456 0
f_457 0
f_458 0
f_459 0
f_460 3.0733612721528199e-02
f_461 0
f_462 9.0174119080241658e-03
f_463 0
f_464 0
f_465 0
f_466 8.6541957729467420e-02
f_467 0
f_468 0
f_469 0
f_470 0
f_471 0
f_472 1.3497529875573980e-01
f_473 4.2451684330749855e-02
f_474 7.1981029428807652e-01
f_475 0
f_476 0
f_477 0
f_478 7.6011511862085351e-02
f_479 0
f_480 2.3074975192532374e-01
f_481 0
f_482 0
f_483 7.6707665131367772e-02
f_484 0
f_485 0
f_486 7.6107571761069429e-02
f_487 2.5220007375933136e-03
f_488 0
f_489 0
f_490 3.9582751827521724e-02
f_491 0
f_492 0
f_493 0
f_494 0
f_495 0
f_496 0
f_497 0
f_498 0
f_499 0
f_500 0
f_501 4.1096411717286341e-02
f_502 0
f_503 0
f_504 1.4709676611462604e-02
f_505 1.1191294283155217e-02
f_506 2.7314116339263572e-01
f_507 0
f_508 1.1561600467920308e-01
f_509 0
f_510 0
f_511 0
f_512 0
f_513 2.2326990560579685e-01
f_514 0
f_515 6.7581404391388088e-03
f_516 0
f_517 9.8958730081334892e-02
f_518 1.5128967891820388e-03
f_519 0
f_520 4.3368532162153105e-02
f_521 0
f_522 0
f_523 0
f_524 0
f_525 0
f_526 1.3734909182114707e-01
f_527 1.4562362545168084e-01
f_528 9.1647327373021642e-02
f_529 0
f_530 5.2845827984531097e-04
f_531 0
f_532 6.2919093944578397e-02
f_533 0
f_534 2.1821331220856365e-03
f_535 6.9435322591035881e-03
f_536 0
f_537 8.5548423630475823e-01
f_538 5.8827396221324574e-02
f_539 5.8249026484172843e-02
f_540 8.6270760990856510e-02
f_541 0
f_542 1.7866766140003962e-01
f_543 7.3742772658938439e-04
f_544 3.1305914277678681e-01
f_545 0
f_546 0
f_547 0
f_548 0
f_549 0
f_550 1.3396632958333374e-01
f_551 4.2724032306665015e-02
f_552 2.0413751584507714e-02
f_553 2.5473931271379285e-01
f_554 0
f_555 1.2340650480282891e-02
f_556 2.5923733789529127e-02
f_557 3.8573456334359746e-01
f_558 0
f_559 0
f_560 0
f_561 0
f_562 0
f_563 0
f_564 3.0121313138564308e-03
f_565 0
f_566 0
f_567 0
f_568 0
f_569 5.3952462215334590e-02
f_570 0
f_571 0
f_572 8.2539748824354553e-03
f_573 1.1440303584069647e-01
f_574 3.0913239185325692e-01
f_575 2.3539380833524282e-01
f_576 0
f_577 0
f_578 1.3095840531993294e-01
f_579 1.1895096562087532e-01
f_580 0
f_581 3.7845351841010405e-01
f_582 0
f_583 5.5036754853560688e-01
f_584 1.6635235016502009e-01
f_585 1.0822100801295696e-01
f_586 9.2830874812247083e-03
f_587 2.4709603754307641e-03
f_588 1.6436159002277675e-01
f_589 0
f_590 1.1440303584069647e-01
f_591 5.6080702226436419e-01
f_592 0
f_593 2.6010636821917721e-01
f_594 2.7618985612571939e-01
f_595 8.6270760990856551e-02
f_596 0
f_597 1.2071833004988539e-01
f_598 7.5116824904798207e-02
f_599 1.3173683139038275e-01
f_600 0
f_601 7.4102144883681303e-02
f_602 3.8558852217271289e-02
f_603 0
f_604 2.6134243907262777e-01
f_605 3.3586727645781245e-02
f_606 1.1765498065639764e-01
f_607 2.4484670870376649e-02
f_608 5.1237982597612482e-02
f_609 7.4220026278763396e-02
f_610 0
f_611 5.6304697841168427e-02
f_612 0
f_613 4.9665092880517014e-02
f_614 0
f_615 4.7228661674417874e-02
f_616 0
f_617 0
f_618 4.3927775610302339e-02
f_619 0
